p edge 214 2387
v 1 240
v 2 492
v 3 604
v 4 528
v 5 335
v 6 415
v 7 479
v 8 266
v 9 446
v 10 679
v 11 203
v 12 505
v 13 536
v 14 549
v 15 453
v 16 291
v 17 204
v 18 506
v 19 693
v 20 645
v 21 552
v 22 363
v 23 539
v 24 402
v 25 249
v 26 443
v 27 262
v 28 311
v 29 505
v 30 626
v 31 625
v 32 504
v 33 322
v 34 530
v 35 385
v 36 523
v 37 503
v 38 365
v 39 701
v 40 429
v 41 703
v 42 427
v 43 683
v 44 397
v 45 651
v 46 520
v 47 644
v 48 538
v 49 394
v 50 444
v 51 487
v 52 324
v 53 621
v 54 309
v 55 460
v 56 242
v 57 271
v 58 464
v 59 560
v 60 631
v 61 553
v 62 261
v 63 303
v 64 530
v 65 315
v 66 699
v 67 325
v 68 368
v 69 206
v 70 460
v 71 563
v 72 528
v 73 433
v 74 661
v 75 373
v 76 636
v 77 644
v 78 416
v 79 416
v 80 547
v 81 321
v 82 388
v 83 270
v 84 207
v 85 232
v 86 350
v 87 303
v 88 627
v 89 237
v 90 251
v 91 555
v 92 472
v 93 582
v 94 496
v 95 223
v 96 413
v 97 307
v 98 659
v 99 539
v 100 456
v 101 692
v 102 427
v 103 265
v 104 563
v 105 466
v 106 673
v 107 496
v 108 396
v 109 552
v 110 533
v 111 434
v 112 572
v 113 310
v 114 286
v 115 280
v 116 682
v 117 481
v 118 226
v 119 418
v 120 422
v 121 485
v 122 681
v 123 566
v 124 242
v 125 420
v 126 702
v 127 495
v 128 640
v 129 487
v 130 367
v 131 235
v 132 212
v 133 201
v 134 662
v 135 617
v 136 481
v 137 359
v 138 636
v 139 479
v 140 470
v 141 511
v 142 252
v 143 238
v 144 568
v 145 364
v 146 651
v 147 342
v 148 496
v 149 684
v 150 334
v 151 353
v 152 210
v 153 665
v 154 462
v 155 431
v 156 495
v 157 215
v 158 338
v 159 583
v 160 495
v 161 475
v 162 521
v 163 539
v 164 383
v 165 684
v 166 505
v 167 635
v 168 552
v 169 303
v 170 301
v 171 216
v 172 296
v 173 448
v 174 239
v 175 471
v 176 516
v 177 460
v 178 441
v 179 685
v 180 599
v 181 491
v 182 453
v 183 541
v 184 563
v 185 683
v 186 620
v 187 555
v 188 498
v 189 250
v 190 595
v 191 345
v 192 689
v 193 593
v 194 396
v 195 521
v 196 642
v 197 262
v 198 670
v 199 298
v 200 677
v 201 674
v 202 670
v 203 418
v 204 321
v 205 391
v 206 614
v 207 432
v 208 580
v 209 485
v 210 402
v 211 273
v 212 421
v 213 534
v 214 321
e 1 2
e 1 3
e 1 4
e 1 5
e 1 6
e 1 7
e 1 8
e 1 9
e 1 10
e 1 11
e 1 12
e 1 14
e 1 38
e 1 50
e 1 77
e 1 90
e 1 115
e 1 128
e 1 142
e 1 155
e 1 179
e 1 205
e 2 3
e 2 4
e 2 5
e 2 6
e 2 7
e 2 8
e 2 9
e 2 10
e 2 11
e 2 12
e 2 15
e 2 29
e 2 51
e 2 64
e 2 78
e 2 91
e 2 100
e 2 116
e 2 129
e 2 156
e 2 180
e 2 193
e 2 206
e 3 4
e 3 5
e 3 6
e 3 7
e 3 8
e 3 9
e 3 10
e 3 11
e 3 12
e 3 22
e 3 39
e 3 52
e 3 65
e 3 79
e 3 101
e 3 117
e 3 157
e 3 181
e 3 207
e 4 5
e 4 6
e 4 7
e 4 8
e 4 9
e 4 10
e 4 11
e 4 12
e 4 24
e 4 41
e 4 54
e 4 67
e 4 93
e 4 102
e 4 131
e 4 144
e 4 158
e 4 168
e 4 195
e 4 208
e 5 6
e 5 7
e 5 8
e 5 9
e 5 10
e 5 11
e 5 12
e 5 42
e 5 55
e 5 68
e 5 80
e 5 103
e 5 118
e 5 132
e 5 159
e 5 169
e 5 209
e 6 7
e 6 8
e 6 9
e 6 10
e 6 11
e 6 12
e 6 17
e 6 57
e 6 106
e 6 120
e 6 135
e 6 146
e 6 161
e 6 172
e 6 185
e 6 210
e 7 8
e 7 9
e 7 10
e 7 11
e 7 12
e 7 32
e 7 59
e 7 84
e 7 108
e 7 122
e 7 147
e 7 163
e 7 199
e 8 9
e 8 10
e 8 11
e 8 12
e 8 33
e 8 44
e 8 71
e 8 95
e 8 123
e 8 137
e 8 148
e 8 174
e 8 187
e 8 200
e 8 211
e 9 10
e 9 11
e 9 12
e 9 34
e 9 45
e 9 85
e 9 109
e 9 149
e 9 164
e 9 175
e 9 188
e 9 201
e 10 11
e 10 12
e 10 36
e 10 47
e 10 60
e 10 73
e 10 97
e 10 111
e 10 125
e 10 138
e 10 151
e 10 165
e 10 177
e 10 189
e 10 203
e 10 213
e 11 12
e 11 20
e 11 27
e 11 48
e 11 61
e 11 74
e 11 87
e 11 98
e 11 112
e 11 139
e 11 152
e 11 166
e 11 190
e 12 37
e 12 49
e 12 62
e 12 75
e 12 88
e 12 99
e 12 113
e 12 126
e 12 140
e 12 153
e 12 167
e 12 191
e 12 214
e 13 14
e 13 15
e 13 16
e 13 17
e 13 18
e 13 19
e 13 20
e 13 21
e 13 28
e 13 63
e 13 76
e 13 89
e 13 114
e 13 127
e 13 141
e 13 154
e 13 178
e 13 192
e 13 204
e 14 15
e 14 16
e 14 17
e 14 18
e 14 19
e 14 20
e 14 38
e 14 50
e 14 77
e 14 90
e 14 115
e 14 128
e 14 142
e 14 155
e 14 179
e 14 205
e 15 16
e 15 17
e 15 18
e 15 19
e 15 20
e 15 29
e 15 51
e 15 64
e 15 78
e 15 91
e 15 100
e 15 116
e 15 129
e 15 156
e 15 180
e 15 193
e 15 206
e 16 17
e 16 18
e 16 19
e 16 20
e 16 23
e 16 40
e 16 53
e 16 66
e 16 92
e 16 130
e 16 143
e 16 182
e 16 194
e 17 18
e 17 19
e 17 20
e 17 57
e 17 106
e 17 120
e 17 135
e 17 146
e 17 161
e 17 172
e 17 185
e 17 210
e 18 19
e 18 20
e 18 26
e 18 43
e 18 58
e 18 83
e 18 107
e 18 121
e 18 136
e 18 162
e 18 173
e 18 186
e 18 198
e 19 20
e 19 35
e 19 46
e 19 72
e 19 86
e 19 96
e 19 110
e 19 124
e 19 150
e 19 176
e 19 202
e 19 212
e 20 27
e 20 48
e 20 61
e 20 74
e 20 87
e 20 98
e 20 112
e 20 139
e 20 152
e 20 166
e 20 190
e 21 22
e 21 23
e 21 24
e 21 25
e 21 26
e 21 27
e 21 28
e 21 63
e 21 76
e 21 89
e 21 114
e 21 127
e 21 141
e 21 154
e 21 178
e 21 192
e 21 204
e 22 23
e 22 24
e 22 25
e 22 26
e 22 27
e 22 39
e 22 52
e 22 65
e 22 79
e 22 101
e 22 117
e 22 157
e 22 181
e 22 207
e 23 24
e 23 25
e 23 26
e 23 27
e 23 40
e 23 53
e 23 66
e 23 92
e 23 130
e 23 143
e 23 182
e 23 194
e 24 25
e 24 26
e 24 27
e 24 41
e 24 54
e 24 67
e 24 93
e 24 102
e 24 131
e 24 144
e 24 158
e 24 168
e 24 195
e 24 208
e 25 26
e 25 27
e 25 31
e 25 70
e 25 82
e 25 94
e 25 105
e 25 134
e 25 145
e 25 171
e 25 184
e 25 197
e 26 27
e 26 43
e 26 58
e 26 83
e 26 107
e 26 121
e 26 136
e 26 162
e 26 173
e 26 186
e 26 198
e 27 48
e 27 61
e 27 74
e 27 87
e 27 98
e 27 112
e 27 139
e 27 152
e 27 166
e 27 190
e 28 29
e 28 30
e 28 31
e 28 32
e 28 33
e 28 34
e 28 35
e 28 36
e 28 37
e 28 63
e 28 76
e 28 89
e 28 114
e 28 127
e 28 141
e 28 154
e 28 178
e 28 192
e 28 204
e 29 30
e 29 31
e 29 32
e 29 33
e 29 34
e 29 35
e 29 36
e 29 37
e 29 51
e 29 64
e 29 78
e 29 91
e 29 100
e 29 116
e 29 129
e 29 156
e 29 180
e 29 193
e 29 206
e 30 31
e 30 32
e 30 33
e 30 34
e 30 35
e 30 36
e 30 37
e 30 56
e 30 69
e 30 81
e 30 104
e 30 119
e 30 133
e 30 160
e 30 170
e 30 183
e 30 196
e 31 32
e 31 33
e 31 34
e 31 35
e 31 36
e 31 37
e 31 70
e 31 82
e 31 94
e 31 105
e 31 134
e 31 145
e 31 171
e 31 184
e 31 197
e 32 33
e 32 34
e 32 35
e 32 36
e 32 37
e 32 59
e 32 84
e 32 108
e 32 122
e 32 147
e 32 163
e 32 199
e 33 34
e 33 35
e 33 36
e 33 37
e 33 44
e 33 71
e 33 95
e 33 123
e 33 137
e 33 148
e 33 174
e 33 187
e 33 200
e 33 211
e 34 35
e 34 36
e 34 37
e 34 45
e 34 85
e 34 109
e 34 149
e 34 164
e 34 175
e 34 188
e 34 201
e 35 36
e 35 37
e 35 46
e 35 72
e 35 86
e 35 96
e 35 110
e 35 124
e 35 150
e 35 176
e 35 202
e 35 212
e 36 37
e 36 47
e 36 60
e 36 73
e 36 97
e 36 111
e 36 125
e 36 138
e 36 151
e 36 165
e 36 177
e 36 189
e 36 203
e 36 213
e 37 49
e 37 62
e 37 75
e 37 88
e 37 99
e 37 113
e 37 126
e 37 140
e 37 153
e 37 167
e 37 191
e 37 214
e 38 39
e 38 40
e 38 41
e 38 42
e 38 43
e 38 44
e 38 45
e 38 46
e 38 47
e 38 48
e 38 49
e 38 50
e 38 77
e 38 90
e 38 115
e 38 128
e 38 142
e 38 155
e 38 179
e 38 205
e 39 40
e 39 41
e 39 42
e 39 43
e 39 44
e 39 45
e 39 46
e 39 47
e 39 48
e 39 49
e 39 52
e 39 65
e 39 79
e 39 101
e 39 117
e 39 157
e 39 181
e 39 207
e 40 41
e 40 42
e 40 43
e 40 44
e 40 45
e 40 46
e 40 47
e 40 48
e 40 49
e 40 53
e 40 66
e 40 92
e 40 130
e 40 143
e 40 182
e 40 194
e 41 42
e 41 43
e 41 44
e 41 45
e 41 46
e 41 47
e 41 48
e 41 49
e 41 54
e 41 67
e 41 93
e 41 102
e 41 131
e 41 144
e 41 158
e 41 168
e 41 195
e 41 208
e 42 43
e 42 44
e 42 45
e 42 46
e 42 47
e 42 48
e 42 49
e 42 55
e 42 68
e 42 80
e 42 103
e 42 118
e 42 132
e 42 159
e 42 169
e 42 209
e 43 44
e 43 45
e 43 46
e 43 47
e 43 48
e 43 49
e 43 58
e 43 83
e 43 107
e 43 121
e 43 136
e 43 162
e 43 173
e 43 186
e 43 198
e 44 45
e 44 46
e 44 47
e 44 48
e 44 49
e 44 71
e 44 95
e 44 123
e 44 137
e 44 148
e 44 174
e 44 187
e 44 200
e 44 211
e 45 46
e 45 47
e 45 48
e 45 49
e 45 85
e 45 109
e 45 149
e 45 164
e 45 175
e 45 188
e 45 201
e 46 47
e 46 48
e 46 49
e 46 72
e 46 86
e 46 96
e 46 110
e 46 124
e 46 150
e 46 176
e 46 202
e 46 212
e 47 48
e 47 49
e 47 60
e 47 73
e 47 97
e 47 111
e 47 125
e 47 138
e 47 151
e 47 165
e 47 177
e 47 189
e 47 203
e 47 213
e 48 49
e 48 61
e 48 74
e 48 87
e 48 98
e 48 112
e 48 139
e 48 152
e 48 166
e 48 190
e 49 62
e 49 75
e 49 88
e 49 99
e 49 113
e 49 126
e 49 140
e 49 153
e 49 167
e 49 191
e 49 214
e 50 51
e 50 52
e 50 53
e 50 54
e 50 55
e 50 56
e 50 57
e 50 58
e 50 59
e 50 60
e 50 61
e 50 62
e 50 77
e 50 90
e 50 115
e 50 128
e 50 142
e 50 155
e 50 179
e 50 205
e 51 52
e 51 53
e 51 54
e 51 55
e 51 56
e 51 57
e 51 58
e 51 59
e 51 60
e 51 61
e 51 62
e 51 64
e 51 78
e 51 91
e 51 100
e 51 116
e 51 129
e 51 156
e 51 180
e 51 193
e 51 206
e 52 53
e 52 54
e 52 55
e 52 56
e 52 57
e 52 58
e 52 59
e 52 60
e 52 61
e 52 62
e 52 65
e 52 79
e 52 101
e 52 117
e 52 157
e 52 181
e 52 207
e 53 54
e 53 55
e 53 56
e 53 57
e 53 58
e 53 59
e 53 60
e 53 61
e 53 62
e 53 66
e 53 92
e 53 130
e 53 143
e 53 182
e 53 194
e 54 55
e 54 56
e 54 57
e 54 58
e 54 59
e 54 60
e 54 61
e 54 62
e 54 67
e 54 93
e 54 102
e 54 131
e 54 144
e 54 158
e 54 168
e 54 195
e 54 208
e 55 56
e 55 57
e 55 58
e 55 59
e 55 60
e 55 61
e 55 62
e 55 68
e 55 80
e 55 103
e 55 118
e 55 132
e 55 159
e 55 169
e 55 209
e 56 57
e 56 58
e 56 59
e 56 60
e 56 61
e 56 62
e 56 69
e 56 81
e 56 104
e 56 119
e 56 133
e 56 160
e 56 170
e 56 183
e 56 196
e 57 58
e 57 59
e 57 60
e 57 61
e 57 62
e 57 106
e 57 120
e 57 135
e 57 146
e 57 161
e 57 172
e 57 185
e 57 210
e 58 59
e 58 60
e 58 61
e 58 62
e 58 83
e 58 107
e 58 121
e 58 136
e 58 162
e 58 173
e 58 186
e 58 198
e 59 60
e 59 61
e 59 62
e 59 84
e 59 108
e 59 122
e 59 147
e 59 163
e 59 199
e 60 61
e 60 62
e 60 73
e 60 97
e 60 111
e 60 125
e 60 138
e 60 151
e 60 165
e 60 177
e 60 189
e 60 203
e 60 213
e 61 62
e 61 74
e 61 87
e 61 98
e 61 112
e 61 139
e 61 152
e 61 166
e 61 190
e 62 75
e 62 88
e 62 99
e 62 113
e 62 126
e 62 140
e 62 153
e 62 167
e 62 191
e 62 214
e 63 64
e 63 65
e 63 66
e 63 67
e 63 68
e 63 69
e 63 70
e 63 71
e 63 72
e 63 73
e 63 74
e 63 75
e 63 76
e 63 89
e 63 114
e 63 127
e 63 141
e 63 154
e 63 178
e 63 192
e 63 204
e 64 65
e 64 66
e 64 67
e 64 68
e 64 69
e 64 70
e 64 71
e 64 72
e 64 73
e 64 74
e 64 75
e 64 78
e 64 91
e 64 100
e 64 116
e 64 129
e 64 156
e 64 180
e 64 193
e 64 206
e 65 66
e 65 67
e 65 68
e 65 69
e 65 70
e 65 71
e 65 72
e 65 73
e 65 74
e 65 75
e 65 79
e 65 101
e 65 117
e 65 157
e 65 181
e 65 207
e 66 67
e 66 68
e 66 69
e 66 70
e 66 71
e 66 72
e 66 73
e 66 74
e 66 75
e 66 92
e 66 130
e 66 143
e 66 182
e 66 194
e 67 68
e 67 69
e 67 70
e 67 71
e 67 72
e 67 73
e 67 74
e 67 75
e 67 93
e 67 102
e 67 131
e 67 144
e 67 158
e 67 168
e 67 195
e 67 208
e 68 69
e 68 70
e 68 71
e 68 72
e 68 73
e 68 74
e 68 75
e 68 80
e 68 103
e 68 118
e 68 132
e 68 159
e 68 169
e 68 209
e 69 70
e 69 71
e 69 72
e 69 73
e 69 74
e 69 75
e 69 81
e 69 104
e 69 119
e 69 133
e 69 160
e 69 170
e 69 183
e 69 196
e 70 71
e 70 72
e 70 73
e 70 74
e 70 75
e 70 82
e 70 94
e 70 105
e 70 134
e 70 145
e 70 171
e 70 184
e 70 197
e 71 72
e 71 73
e 71 74
e 71 75
e 71 95
e 71 123
e 71 137
e 71 148
e 71 174
e 71 187
e 71 200
e 71 211
e 72 73
e 72 74
e 72 75
e 72 86
e 72 96
e 72 110
e 72 124
e 72 150
e 72 176
e 72 202
e 72 212
e 73 74
e 73 75
e 73 97
e 73 111
e 73 125
e 73 138
e 73 151
e 73 165
e 73 177
e 73 189
e 73 203
e 73 213
e 74 75
e 74 87
e 74 98
e 74 112
e 74 139
e 74 152
e 74 166
e 74 190
e 75 88
e 75 99
e 75 113
e 75 126
e 75 140
e 75 153
e 75 167
e 75 191
e 75 214
e 76 77
e 76 78
e 76 79
e 76 80
e 76 81
e 76 82
e 76 83
e 76 84
e 76 85
e 76 86
e 76 87
e 76 88
e 76 89
e 76 114
e 76 127
e 76 141
e 76 154
e 76 178
e 76 192
e 76 204
e 77 78
e 77 79
e 77 80
e 77 81
e 77 82
e 77 83
e 77 84
e 77 85
e 77 86
e 77 87
e 77 88
e 77 90
e 77 115
e 77 128
e 77 142
e 77 155
e 77 179
e 77 205
e 78 79
e 78 80
e 78 81
e 78 82
e 78 83
e 78 84
e 78 85
e 78 86
e 78 87
e 78 88
e 78 91
e 78 100
e 78 116
e 78 129
e 78 156
e 78 180
e 78 193
e 78 206
e 79 80
e 79 81
e 79 82
e 79 83
e 79 84
e 79 85
e 79 86
e 79 87
e 79 88
e 79 101
e 79 117
e 79 157
e 79 181
e 79 207
e 80 81
e 80 82
e 80 83
e 80 84
e 80 85
e 80 86
e 80 87
e 80 88
e 80 103
e 80 118
e 80 132
e 80 159
e 80 169
e 80 209
e 81 82
e 81 83
e 81 84
e 81 85
e 81 86
e 81 87
e 81 88
e 81 104
e 81 119
e 81 133
e 81 160
e 81 170
e 81 183
e 81 196
e 82 83
e 82 84
e 82 85
e 82 86
e 82 87
e 82 88
e 82 94
e 82 105
e 82 134
e 82 145
e 82 171
e 82 184
e 82 197
e 83 84
e 83 85
e 83 86
e 83 87
e 83 88
e 83 107
e 83 121
e 83 136
e 83 162
e 83 173
e 83 186
e 83 198
e 84 85
e 84 86
e 84 87
e 84 88
e 84 108
e 84 122
e 84 147
e 84 163
e 84 199
e 85 86
e 85 87
e 85 88
e 85 109
e 85 149
e 85 164
e 85 175
e 85 188
e 85 201
e 86 87
e 86 88
e 86 96
e 86 110
e 86 124
e 86 150
e 86 176
e 86 202
e 86 212
e 87 88
e 87 98
e 87 112
e 87 139
e 87 152
e 87 166
e 87 190
e 88 99
e 88 113
e 88 126
e 88 140
e 88 153
e 88 167
e 88 191
e 88 214
e 89 90
e 89 91
e 89 92
e 89 93
e 89 94
e 89 95
e 89 96
e 89 97
e 89 98
e 89 99
e 89 114
e 89 127
e 89 141
e 89 154
e 89 178
e 89 192
e 89 204
e 90 91
e 90 92
e 90 93
e 90 94
e 90 95
e 90 96
e 90 97
e 90 98
e 90 99
e 90 115
e 90 128
e 90 142
e 90 155
e 90 179
e 90 205
e 91 92
e 91 93
e 91 94
e 91 95
e 91 96
e 91 97
e 91 98
e 91 99
e 91 100
e 91 116
e 91 129
e 91 156
e 91 180
e 91 193
e 91 206
e 92 93
e 92 94
e 92 95
e 92 96
e 92 97
e 92 98
e 92 99
e 92 130
e 92 143
e 92 182
e 92 194
e 93 94
e 93 95
e 93 96
e 93 97
e 93 98
e 93 99
e 93 102
e 93 131
e 93 144
e 93 158
e 93 168
e 93 195
e 93 208
e 94 95
e 94 96
e 94 97
e 94 98
e 94 99
e 94 105
e 94 134
e 94 145
e 94 171
e 94 184
e 94 197
e 95 96
e 95 97
e 95 98
e 95 99
e 95 123
e 95 137
e 95 148
e 95 174
e 95 187
e 95 200
e 95 211
e 96 97
e 96 98
e 96 99
e 96 110
e 96 124
e 96 150
e 96 176
e 96 202
e 96 212
e 97 98
e 97 99
e 97 111
e 97 125
e 97 138
e 97 151
e 97 165
e 97 177
e 97 189
e 97 203
e 97 213
e 98 99
e 98 112
e 98 139
e 98 152
e 98 166
e 98 190
e 99 113
e 99 126
e 99 140
e 99 153
e 99 167
e 99 191
e 99 214
e 100 101
e 100 102
e 100 103
e 100 104
e 100 105
e 100 106
e 100 107
e 100 108
e 100 109
e 100 110
e 100 111
e 100 112
e 100 113
e 100 116
e 100 129
e 100 156
e 100 180
e 100 193
e 100 206
e 101 102
e 101 103
e 101 104
e 101 105
e 101 106
e 101 107
e 101 108
e 101 109
e 101 110
e 101 111
e 101 112
e 101 113
e 101 117
e 101 157
e 101 181
e 101 207
e 102 103
e 102 104
e 102 105
e 102 106
e 102 107
e 102 108
e 102 109
e 102 110
e 102 111
e 102 112
e 102 113
e 102 131
e 102 144
e 102 158
e 102 168
e 102 195
e 102 208
e 103 104
e 103 105
e 103 106
e 103 107
e 103 108
e 103 109
e 103 110
e 103 111
e 103 112
e 103 113
e 103 118
e 103 132
e 103 159
e 103 169
e 103 209
e 104 105
e 104 106
e 104 107
e 104 108
e 104 109
e 104 110
e 104 111
e 104 112
e 104 113
e 104 119
e 104 133
e 104 160
e 104 170
e 104 183
e 104 196
e 105 106
e 105 107
e 105 108
e 105 109
e 105 110
e 105 111
e 105 112
e 105 113
e 105 134
e 105 145
e 105 171
e 105 184
e 105 197
e 106 107
e 106 108
e 106 109
e 106 110
e 106 111
e 106 112
e 106 113
e 106 120
e 106 135
e 106 146
e 106 161
e 106 172
e 106 185
e 106 210
e 107 108
e 107 109
e 107 110
e 107 111
e 107 112
e 107 113
e 107 121
e 107 136
e 107 162
e 107 173
e 107 186
e 107 198
e 108 109
e 108 110
e 108 111
e 108 112
e 108 113
e 108 122
e 108 147
e 108 163
e 108 199
e 109 110
e 109 111
e 109 112
e 109 113
e 109 149
e 109 164
e 109 175
e 109 188
e 109 201
e 110 111
e 110 112
e 110 113
e 110 124
e 110 150
e 110 176
e 110 202
e 110 212
e 111 112
e 111 113
e 111 125
e 111 138
e 111 151
e 111 165
e 111 177
e 111 189
e 111 203
e 111 213
e 112 113
e 112 139
e 112 152
e 112 166
e 112 190
e 113 126
e 113 140
e 113 153
e 113 167
e 113 191
e 113 214
e 114 115
e 114 116
e 114 117
e 114 118
e 114 119
e 114 120
e 114 121
e 114 122
e 114 123
e 114 124
e 114 125
e 114 126
e 114 127
e 114 141
e 114 154
e 114 178
e 114 192
e 114 204
e 115 116
e 115 117
e 115 118
e 115 119
e 115 120
e 115 121
e 115 122
e 115 123
e 115 124
e 115 125
e 115 126
e 115 128
e 115 142
e 115 155
e 115 179
e 115 205
e 116 117
e 116 118
e 116 119
e 116 120
e 116 121
e 116 122
e 116 123
e 116 124
e 116 125
e 116 126
e 116 129
e 116 156
e 116 180
e 116 193
e 116 206
e 117 118
e 117 119
e 117 120
e 117 121
e 117 122
e 117 123
e 117 124
e 117 125
e 117 126
e 117 157
e 117 181
e 117 207
e 118 119
e 118 120
e 118 121
e 118 122
e 118 123
e 118 124
e 118 125
e 118 126
e 118 132
e 118 159
e 118 169
e 118 209
e 119 120
e 119 121
e 119 122
e 119 123
e 119 124
e 119 125
e 119 126
e 119 133
e 119 160
e 119 170
e 119 183
e 119 196
e 120 121
e 120 122
e 120 123
e 120 124
e 120 125
e 120 126
e 120 135
e 120 146
e 120 161
e 120 172
e 120 185
e 120 210
e 121 122
e 121 123
e 121 124
e 121 125
e 121 126
e 121 136
e 121 162
e 121 173
e 121 186
e 121 198
e 122 123
e 122 124
e 122 125
e 122 126
e 122 147
e 122 163
e 122 199
e 123 124
e 123 125
e 123 126
e 123 137
e 123 148
e 123 174
e 123 187
e 123 200
e 123 211
e 124 125
e 124 126
e 124 150
e 124 176
e 124 202
e 124 212
e 125 126
e 125 138
e 125 151
e 125 165
e 125 177
e 125 189
e 125 203
e 125 213
e 126 140
e 126 153
e 126 167
e 126 191
e 126 214
e 127 128
e 127 129
e 127 130
e 127 131
e 127 132
e 127 133
e 127 134
e 127 135
e 127 136
e 127 137
e 127 138
e 127 139
e 127 140
e 127 141
e 127 154
e 127 178
e 127 192
e 127 204
e 128 129
e 128 130
e 128 131
e 128 132
e 128 133
e 128 134
e 128 135
e 128 136
e 128 137
e 128 138
e 128 139
e 128 140
e 128 142
e 128 155
e 128 179
e 128 205
e 129 130
e 129 131
e 129 132
e 129 133
e 129 134
e 129 135
e 129 136
e 129 137
e 129 138
e 129 139
e 129 140
e 129 156
e 129 180
e 129 193
e 129 206
e 130 131
e 130 132
e 130 133
e 130 134
e 130 135
e 130 136
e 130 137
e 130 138
e 130 139
e 130 140
e 130 143
e 130 182
e 130 194
e 131 132
e 131 133
e 131 134
e 131 135
e 131 136
e 131 137
e 131 138
e 131 139
e 131 140
e 131 144
e 131 158
e 131 168
e 131 195
e 131 208
e 132 133
e 132 134
e 132 135
e 132 136
e 132 137
e 132 138
e 132 139
e 132 140
e 132 159
e 132 169
e 132 209
e 133 134
e 133 135
e 133 136
e 133 137
e 133 138
e 133 139
e 133 140
e 133 160
e 133 170
e 133 183
e 133 196
e 134 135
e 134 136
e 134 137
e 134 138
e 134 139
e 134 140
e 134 145
e 134 171
e 134 184
e 134 197
e 135 136
e 135 137
e 135 138
e 135 139
e 135 140
e 135 146
e 135 161
e 135 172
e 135 185
e 135 210
e 136 137
e 136 138
e 136 139
e 136 140
e 136 162
e 136 173
e 136 186
e 136 198
e 137 138
e 137 139
e 137 140
e 137 148
e 137 174
e 137 187
e 137 200
e 137 211
e 138 139
e 138 140
e 138 151
e 138 165
e 138 177
e 138 189
e 138 203
e 138 213
e 139 140
e 139 152
e 139 166
e 139 190
e 140 153
e 140 167
e 140 191
e 140 214
e 141 142
e 141 143
e 141 144
e 141 145
e 141 146
e 141 147
e 141 148
e 141 149
e 141 150
e 141 151
e 141 152
e 141 153
e 141 154
e 141 178
e 141 192
e 141 204
e 142 143
e 142 144
e 142 145
e 142 146
e 142 147
e 142 148
e 142 149
e 142 150
e 142 151
e 142 152
e 142 153
e 142 155
e 142 179
e 142 205
e 143 144
e 143 145
e 143 146
e 143 147
e 143 148
e 143 149
e 143 150
e 143 151
e 143 152
e 143 153
e 143 182
e 143 194
e 144 145
e 144 146
e 144 147
e 144 148
e 144 149
e 144 150
e 144 151
e 144 152
e 144 153
e 144 158
e 144 168
e 144 195
e 144 208
e 145 146
e 145 147
e 145 148
e 145 149
e 145 150
e 145 151
e 145 152
e 145 153
e 145 171
e 145 184
e 145 197
e 146 147
e 146 148
e 146 149
e 146 150
e 146 151
e 146 152
e 146 153
e 146 161
e 146 172
e 146 185
e 146 210
e 147 148
e 147 149
e 147 150
e 147 151
e 147 152
e 147 153
e 147 163
e 147 199
e 148 149
e 148 150
e 148 151
e 148 152
e 148 153
e 148 174
e 148 187
e 148 200
e 148 211
e 149 150
e 149 151
e 149 152
e 149 153
e 149 164
e 149 175
e 149 188
e 149 201
e 150 151
e 150 152
e 150 153
e 150 176
e 150 202
e 150 212
e 151 152
e 151 153
e 151 165
e 151 177
e 151 189
e 151 203
e 151 213
e 152 153
e 152 166
e 152 190
e 153 167
e 153 191
e 153 214
e 154 155
e 154 156
e 154 157
e 154 158
e 154 159
e 154 160
e 154 161
e 154 162
e 154 163
e 154 164
e 154 165
e 154 166
e 154 167
e 154 178
e 154 192
e 154 204
e 155 156
e 155 157
e 155 158
e 155 159
e 155 160
e 155 161
e 155 162
e 155 163
e 155 164
e 155 165
e 155 166
e 155 167
e 155 179
e 155 205
e 156 157
e 156 158
e 156 159
e 156 160
e 156 161
e 156 162
e 156 163
e 156 164
e 156 165
e 156 166
e 156 167
e 156 180
e 156 193
e 156 206
e 157 158
e 157 159
e 157 160
e 157 161
e 157 162
e 157 163
e 157 164
e 157 165
e 157 166
e 157 167
e 157 181
e 157 207
e 158 159
e 158 160
e 158 161
e 158 162
e 158 163
e 158 164
e 158 165
e 158 166
e 158 167
e 158 168
e 158 195
e 158 208
e 159 160
e 159 161
e 159 162
e 159 163
e 159 164
e 159 165
e 159 166
e 159 167
e 159 169
e 159 209
e 160 161
e 160 162
e 160 163
e 160 164
e 160 165
e 160 166
e 160 167
e 160 170
e 160 183
e 160 196
e 161 162
e 161 163
e 161 164
e 161 165
e 161 166
e 161 167
e 161 172
e 161 185
e 161 210
e 162 163
e 162 164
e 162 165
e 162 166
e 162 167
e 162 173
e 162 186
e 162 198
e 163 164
e 163 165
e 163 166
e 163 167
e 163 199
e 164 165
e 164 166
e 164 167
e 164 175
e 164 188
e 164 201
e 165 166
e 165 167
e 165 177
e 165 189
e 165 203
e 165 213
e 166 167
e 166 190
e 167 191
e 167 214
e 168 169
e 168 170
e 168 171
e 168 172
e 168 173
e 168 174
e 168 175
e 168 176
e 168 177
e 168 195
e 168 208
e 169 170
e 169 171
e 169 172
e 169 173
e 169 174
e 169 175
e 169 176
e 169 177
e 169 209
e 170 171
e 170 172
e 170 173
e 170 174
e 170 175
e 170 176
e 170 177
e 170 183
e 170 196
e 171 172
e 171 173
e 171 174
e 171 175
e 171 176
e 171 177
e 171 184
e 171 197
e 172 173
e 172 174
e 172 175
e 172 176
e 172 177
e 172 185
e 172 210
e 173 174
e 173 175
e 173 176
e 173 177
e 173 186
e 173 198
e 174 175
e 174 176
e 174 177
e 174 187
e 174 200
e 174 211
e 175 176
e 175 177
e 175 188
e 175 201
e 176 177
e 176 202
e 176 212
e 177 189
e 177 203
e 177 213
e 178 179
e 178 180
e 178 181
e 178 182
e 178 183
e 178 184
e 178 185
e 178 186
e 178 187
e 178 188
e 178 189
e 178 190
e 178 191
e 178 192
e 178 204
e 179 180
e 179 181
e 179 182
e 179 183
e 179 184
e 179 185
e 179 186
e 179 187
e 179 188
e 179 189
e 179 190
e 179 191
e 179 205
e 180 181
e 180 182
e 180 183
e 180 184
e 180 185
e 180 186
e 180 187
e 180 188
e 180 189
e 180 190
e 180 191
e 180 193
e 180 206
e 181 182
e 181 183
e 181 184
e 181 185
e 181 186
e 181 187
e 181 188
e 181 189
e 181 190
e 181 191
e 181 207
e 182 183
e 182 184
e 182 185
e 182 186
e 182 187
e 182 188
e 182 189
e 182 190
e 182 191
e 182 194
e 183 184
e 183 185
e 183 186
e 183 187
e 183 188
e 183 189
e 183 190
e 183 191
e 183 196
e 184 185
e 184 186
e 184 187
e 184 188
e 184 189
e 184 190
e 184 191
e 184 197
e 185 186
e 185 187
e 185 188
e 185 189
e 185 190
e 185 191
e 185 210
e 186 187
e 186 188
e 186 189
e 186 190
e 186 191
e 186 198
e 187 188
e 187 189
e 187 190
e 187 191
e 187 200
e 187 211
e 188 189
e 188 190
e 188 191
e 188 201
e 189 190
e 189 191
e 189 203
e 189 213
e 190 191
e 191 214
e 192 193
e 192 194
e 192 195
e 192 196
e 192 197
e 192 198
e 192 199
e 192 200
e 192 201
e 192 202
e 192 203
e 192 204
e 193 194
e 193 195
e 193 196
e 193 197
e 193 198
e 193 199
e 193 200
e 193 201
e 193 202
e 193 203
e 193 206
e 194 195
e 194 196
e 194 197
e 194 198
e 194 199
e 194 200
e 194 201
e 194 202
e 194 203
e 195 196
e 195 197
e 195 198
e 195 199
e 195 200
e 195 201
e 195 202
e 195 203
e 195 208
e 196 197
e 196 198
e 196 199
e 196 200
e 196 201
e 196 202
e 196 203
e 197 198
e 197 199
e 197 200
e 197 201
e 197 202
e 197 203
e 198 199
e 198 200
e 198 201
e 198 202
e 198 203
e 199 200
e 199 201
e 199 202
e 199 203
e 200 201
e 200 202
e 200 203
e 200 211
e 201 202
e 201 203
e 202 203
e 202 212
e 203 213
e 204 205
e 204 206
e 204 207
e 204 208
e 204 209
e 204 210
e 204 211
e 204 212
e 204 213
e 204 214
e 205 206
e 205 207
e 205 208
e 205 209
e 205 210
e 205 211
e 205 212
e 205 213
e 205 214
e 206 207
e 206 208
e 206 209
e 206 210
e 206 211
e 206 212
e 206 213
e 206 214
e 207 208
e 207 209
e 207 210
e 207 211
e 207 212
e 207 213
e 207 214
e 208 209
e 208 210
e 208 211
e 208 212
e 208 213
e 208 214
e 209 210
e 209 211
e 209 212
e 209 213
e 209 214
e 210 211
e 210 212
e 210 213
e 210 214
e 211 212
e 211 213
e 211 214
e 212 213
e 212 214
e 213 214
